
  32    4
  10   10   10   10

   0   0   0   0   0   1 2 
   6   1   1   1   0   1 3 
   2   0   7   3   1   1 4 
   6   6   4   4   0   1 5 
   7   0   4   4   4   1 6 
   2   0   3   5   4   1 7 
   8   4   4   0   7   1 8 
   7   4   0   4   6   1 9 
   1   0   2   7   4   2 13 10 
   8   0   2   3   4   1 11 
   3   6   8   4   0   1 12 
   8   0   7   3   7   1 14 
   6   4   5   0   2   1 14 
   9   3   0   4   3   1 15 
   8   2   3   9   0   1 16 
   5   6   0   6   1   1 17 
   1   0   4   4   3   2 27 18 
   6   0   4   2   5   1 19 
   9   0   2   4   5   2 31 20 
   5   4   4   0   4   1 21 
   4   7   8   5   0   1 22 
   7   5   2   5   0   1 23 
   7   2   2   1   0   1 24 
   1   0   5   4   2   1 25 
   4   0   5   5   3   1 26 
   7   0   4   3   5   1 28 
   2   4   4   0   3   2 31 30 
  10   1   2   0   4   1 29 
  10   0   3   7   6   1 30 
   9   0   5   1   5   1 32
   4   5   0   2   4   1 32
   0   0   0   0   0   0 
